c Random Network
p max    10      20
n         1  s
n        10  t
a       5       3      12
a       3       5       2
a       5       6      36
a       7       8      50
a      10       9      23
a       8       9      21
a       4       5       1
a       2       6       7
a       2       4      14
a       1       2      45
a       3       7      50
a       7       2      32
a       2       3      44
a       3       6      49
a       4       2       1
a       4       7      28
a       2       5      24
a       8       4      24
a       1       4      11
a      10       4      48
